train/id=908_n=25_m=106.cnf
p cnf 25 106
3 -10 19 0
-4 11 16 0
7 -13 -20 0
7 15 20 0
2 5 -17 0
-2 -3 -23 0
12 14 22 0
4 13 16 0
1 -7 23 0
-3 -9 -25 0
6 -10 12 0
2 -12 -23 0
2 6 23 0
-11 14 15 0
16 -20 23 0
4 -13 -14 0
10 -11 22 0
-2 -5 10 0
4 -8 13 0
8 16 20 0
15 16 23 0
8 -9 -22 0
13 -21 -23 0
-13 -23 -25 0
-11 12 13 0
1 -2 18 0
-8 -15 -18 0
2 -14 -16 0
2 -11 13 0
-5 8 25 0
3 -14 25 0
2 -10 21 0
-6 -9 -17 0
-1 17 23 0
-12 17 -18 0
10 11 19 0
3 9 17 0
3 15 -22 0
2 -9 -24 0
2 19 23 0
-6 14 22 0
-4 6 12 0
-5 7 -10 0
6 -22 24 0
14 -15 21 0
6 -11 -24 0
-3 5 -23 0
13 -15 -18 0
-8 -12 -14 0
1 -10 -21 0
-14 -18 24 0
-19 -20 25 0
13 -20 23 0
-8 -18 -19 0
5 -14 -19 0
11 -12 14 0
-2 7 16 0
-1 -12 13 0
-6 -13 -20 0
3 -13 -23 0
-4 -14 19 0
7 17 -21 0
13 15 -16 0
-3 -6 -10 0
-10 20 24 0
-7 -17 -23 0
3 -6 -10 0
7 8 -22 0
4 -8 -24 0
11 -12 -22 0
3 14 16 0
6 -13 -23 0
2 -6 -12 0
-10 13 19 0
-6 -16 -24 0
2 17 21 0
-6 15 23 0
-10 18 -21 0
11 -14 16 0
-8 -9 21 0
-7 -9 12 0
-3 -8 -10 0
-1 -16 -20 0
6 20 21 0
-10 -16 -22 0
11 17 -24 0
9 -17 18 0
14 18 -19 0
12 13 16 0
-11 -15 -20 0
-7 -12 23 0
10 -17 -24 0
14 -17 19 0
13 -15 23 0
3 -19 -23 0
2 8 24 0
17 18 24 0
13 -16 -24 0
2 -20 -21 0
3 4 9 0
10 -18 19 0
13 14 -23 0
8 12 -15 0
15 -22 -24 0
-6 14 15 0
15 -22 25 0
