train/id=908_n=25_m=106.wcnf
p wcnf 25 106 1000
1000 3 -10 19 0
1000 -4 11 16 0
1000 7 -13 -20 0
1000 7 15 20 0
1000 2 5 -17 0
1000 -2 -3 -23 0
1000 12 14 22 0
1000 4 13 16 0
1000 1 -7 23 0
1000 -3 -9 -25 0
81 6 -10 12 0
1000 2 -12 -23 0
1000 2 6 23 0
1000 -11 14 15 0
1000 16 -20 23 0
1000 4 -13 -14 0
1000 10 -11 22 0
1000 -2 -5 10 0
1000 4 -8 13 0
1000 8 16 20 0
1000 15 16 23 0
1000 8 -9 -22 0
1000 13 -21 -23 0
1000 -13 -23 -25 0
1000 -11 12 13 0
1000 1 -2 18 0
1000 -8 -15 -18 0
1000 2 -14 -16 0
1000 2 -11 13 0
1000 -5 8 25 0
1000 3 -14 25 0
1000 2 -10 21 0
1000 -6 -9 -17 0
1000 -1 17 23 0
87 -12 17 -18 0
47 10 11 19 0
1000 3 9 17 0
1000 3 15 -22 0
1000 2 -9 -24 0
74 2 19 23 0
1000 -6 14 22 0
1000 -4 6 12 0
1000 -5 7 -10 0
1000 6 -22 24 0
59 14 -15 21 0
1000 6 -11 -24 0
1000 -3 5 -23 0
1000 13 -15 -18 0
1000 -8 -12 -14 0
1000 1 -10 -21 0
1000 -14 -18 24 0
1000 -19 -20 25 0
1000 13 -20 23 0
1000 -8 -18 -19 0
1000 5 -14 -19 0
1000 11 -12 14 0
1000 -2 7 16 0
1000 -1 -12 13 0
1000 -6 -13 -20 0
1000 3 -13 -23 0
1000 -4 -14 19 0
75 7 17 -21 0
1000 13 15 -16 0
1000 -3 -6 -10 0
1000 -10 20 24 0
1000 -7 -17 -23 0
98 3 -6 -10 0
68 7 8 -22 0
1000 4 -8 -24 0
12 11 -12 -22 0
4 3 14 16 0
9 6 -13 -23 0
1000 2 -6 -12 0
1000 -10 13 19 0
1000 -6 -16 -24 0
1000 2 17 21 0
1000 -6 15 23 0
1000 -10 18 -21 0
1000 11 -14 16 0
1000 -8 -9 21 0
1000 -7 -9 12 0
1000 -3 -8 -10 0
1000 -1 -16 -20 0
1000 6 20 21 0
1000 -10 -16 -22 0
1000 11 17 -24 0
13 9 -17 18 0
1000 14 18 -19 0
41 12 13 16 0
1000 -11 -15 -20 0
1000 -7 -12 23 0
1000 10 -17 -24 0
1000 14 -17 19 0
1000 13 -15 23 0
1000 3 -19 -23 0
1000 2 8 24 0
1000 17 18 24 0
1000 13 -16 -24 0
1000 2 -20 -21 0
1000 3 4 9 0
1000 10 -18 19 0
1000 13 14 -23 0
1000 8 12 -15 0
1000 15 -22 -24 0
1000 -6 14 15 0
92 15 -22 25 0
